p cnf 10 50
5 3 9 0
9 -8 -2 0
-4 -6 10 0
-3 -9 6 0
3 -6 -10 0
6 2 7 0
4 -10 1 0
9 8 7 0
-10 -9 7 0
9 -5 4 0
6 9 -2 0
-7 -4 3 0
4 6 -5 0
8 -9 -10 0
-7 -6 2 0
-8 -7 -2 0
10 -9 -7 0
-10 -3 8 0
2 9 1 0
-10 -6 -1 0
8 3 -9 0
-2 -4 -7 0
7 3 4 0
4 -8 10 0
3 2 -7 0
-6 -8 7 0
6 8 1 0
-8 -7 10 0
2 9 -4 0
-7 -3 -4 0
-8 -6 10 0
1 -10 6 0
8 -5 -2 0
2 3 10 0
-5 10 3 0
4 1 6 0
7 -8 1 0
5 7 6 0
-4 -3 8 0
-6 9 -1 0
-5 10 -9 0
-4 -2 -8 0
1 -4 -2 0
-5 3 -9 0
8 -6 -1 0
-4 -7 10 0
3 -6 -1 0
2 -4 -3 0
2 9 6 0
-4 -8 9 0
